141
10000000
2212537
944877
814292
185225
262166
1339291
276848
2356933
475741
1322
1427669
818276
1376872
421003
1106321
608698
2114135
2440990
1445920
1278020
205794
74245
2368028
1636587
1611418
830765
1781431
371372
1947100
2418053
879060
817858
560046
1093856
170099
1294213
81586
809104
1301326
2203351
459317
2405129
791507
2285796
140543
418936
1028723
806290
1308636
950423
1465571
39592
326387
1515751
162370
552926
884657
1848626
1855787
1528196
598758
500138
312926
2052174
1900996
540873
1050120
1347183
897866
220030
2264362
257660
60297
351094
519113
1610526
324771
570913
1935819
2371836
123742
1938941
330376
588707
1946301
479678
1103059
1697392
546774
263774
579206
858744
711750
2224876
194058
1575289
1071257
2454681
1718429
1885713
295149
208355
351934
1638761
1984391
2230932
1314330
1452676
923309
951214
731805
1370
277075
536076
764996
1207349
2451143
1610271
929274
2130523
569419
1371996
734267
989316
1632028
524931
732808
224245
299888
2234021
1434268
878257
17574
1837272
2171492
223366
197534
784408
176854
1735588
2121742
